p edge 100 268
e 1 7
e 1 14
e 1 31
e 1 38
e 1 45
e 1 59
e 1 67
e 1 93
e 2 42
e 2 46
e 2 72
e 2 91
e 4 41
e 4 69
e 4 89
e 5 17
e 5 54
e 5 59
e 5 61
e 5 68
e 5 92
e 6 19
e 6 20
e 6 51
e 6 53
e 7 18
e 7 21
e 7 46
e 7 64
e 7 76
e 8 25
e 8 31
e 8 34
e 8 71
e 8 86
e 9 48
e 9 51
e 9 83
e 9 92
e 10 18
e 10 88
e 10 96
e 11 24
e 11 36
e 11 49
e 11 62
e 11 72
e 11 82
e 11 93
e 11 96
e 12 17
e 12 59
e 12 61
e 12 69
e 12 70
e 12 87
e 13 57
e 13 80
e 13 82
e 13 98
e 14 29
e 14 35
e 14 43
e 14 49
e 14 56
e 14 74
e 14 79
e 14 82
e 15 26
e 15 52
e 15 54
e 15 73
e 15 75
e 15 76
e 16 29
e 16 42
e 16 49
e 16 50
e 16 51
e 16 56
e 16 82
e 16 86
e 16 88
e 17 36
e 17 41
e 17 80
e 17 94
e 17 98
e 18 26
e 18 34
e 18 78
e 18 79
e 19 26
e 19 39
e 20 62
e 20 99
e 21 46
e 21 76
e 21 98
e 22 24
e 22 37
e 22 67
e 22 79
e 22 86
e 22 89
e 22 94
e 23 43
e 23 49
e 23 81
e 23 99
e 24 87
e 24 93
e 25 48
e 25 51
e 25 81
e 25 86
e 25 88
e 26 48
e 26 54
e 26 77
e 26 91
e 27 41
e 27 70
e 27 84
e 28 61
e 28 83
e 29 52
e 29 56
e 29 63
e 29 66
e 29 67
e 29 68
e 29 70
e 29 85
e 29 88
e 30 51
e 30 90
e 31 58
e 31 90
e 32 43
e 32 51
e 32 90
e 32 94
e 33 51
e 34 37
e 34 53
e 34 90
e 35 88
e 36 43
e 36 71
e 36 88
e 36 93
e 37 58
e 37 60
e 37 61
e 37 91
e 38 47
e 38 60
e 38 68
e 38 79
e 38 95
e 39 45
e 39 51
e 39 63
e 39 73
e 39 79
e 39 82
e 39 98
e 40 52
e 40 60
e 40 71
e 40 83
e 40 89
e 41 45
e 41 96
e 41 97
e 42 63
e 42 66
e 42 68
e 42 70
e 43 58
e 43 76
e 44 69
e 44 73
e 44 76
e 44 80
e 44 86
e 45 58
e 45 59
e 45 69
e 45 72
e 45 85
e 45 92
e 46 59
e 46 60
e 46 99
e 47 90
e 47 96
e 48 51
e 48 65
e 48 79
e 49 54
e 49 98
e 50 80
e 50 93
e 51 54
e 51 66
e 51 71
e 51 80
e 51 86
e 51 87
e 51 94
e 52 81
e 52 97
e 52 99
e 53 98
e 54 82
e 54 90
e 55 79
e 56 58
e 56 62
e 56 67
e 57 69
e 57 71
e 57 78
e 57 79
e 57 90
e 57 100
e 58 64
e 58 68
e 58 88
e 59 92
e 60 63
e 60 81
e 61 62
e 61 90
e 61 91
e 62 82
e 62 91
e 62 95
e 62 97
e 64 80
e 64 93
e 65 76
e 66 69
e 66 97
e 68 77
e 68 98
e 69 79
e 70 77
e 70 88
e 73 81
e 73 87
e 74 77
e 74 97
e 75 79
e 75 81
e 76 83
e 78 98
e 79 83
e 80 93
e 81 85
e 81 88
e 82 100
e 87 90
e 88 94
e 88 96
e 89 96
